data;


param d:= 100;
param r:=5;
param p:=0.100000;
param M:=1000;
param U:=
         1         1        7.986266e-01
         2         1        8.622696e-01
         3         1        2.821783e-01
         4         1       -1.521814e-01
         5         1       -4.269964e-01
         6         1        2.117402e-01
         7         1       -1.632880e+00
         8         1       -5.746346e-01
         9         1        8.789253e-02
        10         1        8.740930e-02
        11         1        1.565318e+00
        12         1       -4.124937e-01
        13         1       -3.503792e+00
        14         1        4.069325e-01
        15         1        3.497140e-01
        16         1        1.483949e+00
        17         1       -6.841189e-01
        18         1       -9.846934e-01
        19         1        3.118399e-01
        20         1        1.413605e+00
        21         1        1.282406e+00
        22         1       -5.712866e-01
        23         1        1.157490e+00
        24         1        5.274041e-01
        25         1        1.037271e+00
        26         1        2.152592e-01
        27         1        9.680438e-01
        28         1        7.808251e-01
        29         1        5.029031e-01
        30         1       -2.881694e-01
        31         1        4.584424e-01
        32         1        5.664403e-01
        33         1       -8.437255e-01
        34         1       -1.158872e+00
        35         1       -1.985550e-02
        36         1       -1.035296e+00
        37         1       -4.714816e-01
        38         1       -7.182109e-01
        39         1       -1.017185e+00
        40         1       -1.019568e-01
        41         1        6.417350e-01
        42         1        1.082137e+00
        43         1       -1.433556e+00
        44         1        1.609313e+00
        45         1       -3.685435e-01
        46         1       -1.397699e-01
        47         1       -3.147162e-01
        48         1       -5.583752e-02
        49         1        3.078494e-01
        50         1        1.150643e+00
        51         1       -1.339825e+00
        52         1       -2.650439e+00
        53         1       -3.521077e-01
        54         1       -6.283197e-01
        55         1        3.714445e-01
        56         1        1.071716e+00
        57         1       -1.551419e+00
        58         1       -1.111021e-01
        59         1       -1.687024e+00
        60         1        1.027608e+00
        61         1        1.139681e+00
        62         1        8.026439e-01
        63         1        2.941034e+00
        64         1        1.215503e-01
        65         1        8.814227e-01
        66         1        5.509783e-02
        67         1       -1.406390e-01
        68         1       -7.229249e-01
        69         1       -1.151902e+00
        70         1       -1.192784e+00
        71         1       -1.507906e+00
        72         1        1.229874e-01
        73         1        7.254903e-02
        74         1        1.612754e+00
        75         1        2.551932e-01
        76         1       -8.478947e-01
        77         1        3.242240e-01
        78         1       -5.879413e-01
        79         1        6.080622e-01
        80         1       -5.103054e-01
        81         1        1.250589e+00
        82         1        9.443116e-01
        83         1        2.258917e+00
        84         1       -1.251369e+00
        85         1        1.814999e-01
        86         1        4.560650e-01
        87         1        3.235646e-01
        88         1        6.791959e-01
        89         1        4.448731e-01
        90         1       -2.010744e-01
        91         1        7.940702e-01
        92         1        8.678681e-01
        93         1       -1.742302e-01
        94         1       -1.531968e+00
        95         1       -1.296634e-01
        96         1       -8.406609e-01
        97         1        1.243684e+00
        98         1       -8.413609e-01
        99         1        6.929428e-01
       100         1       -1.860298e+00
         1         2       -4.152871e-01
         2         2        2.428195e-01
         3         2       -1.560911e+00
         4         2       -7.941401e-01
         5         2       -4.709941e-01
         6         2        6.196846e-01
         7         2        3.111318e-01
         8         2        2.348253e+00
         9         2       -2.188511e-01
        10         2        2.393813e-01
        11         2       -1.254372e+00
        12         2       -8.726099e-01
        13         2       -1.058334e+00
        14         2        5.180503e-02
        15         2       -1.078100e+00
        16         2       -2.124205e-01
        17         2        6.780624e-02
        18         2        2.363146e-01
        19         2        1.920559e+00
        20         2       -3.509930e-01
        21         2        2.511389e-02
        22         2        1.294611e-01
        23         2       -1.293291e-01
        24         2       -7.093681e-01
        25         2        1.605492e+00
        26         2        1.171765e+00
        27         2        1.093181e+00
        28         2        5.395625e-01
        29         2       -7.549659e-01
        30         2        1.209334e+00
        31         2       -1.908808e+00
        32         2        1.832806e+00
        33         2        7.369846e-01
        34         2       -3.040586e-01
        35         2        1.154298e+00
        36         2        9.015693e-01
        37         2        5.247573e-01
        38         2        1.245204e+00
        39         2        1.111790e-01
        40         2       -7.091093e-01
        41         2        4.733473e-01
        42         2        8.358216e-01
        43         2        5.634349e-01
        44         2        3.521577e-01
        45         2        8.368788e-01
        46         2        6.412149e-02
        47         2        1.126388e-01
        48         2        8.438273e-01
        49         2       -3.282597e-01
        50         2        1.208306e+00
        51         2        5.861005e-01
        52         2       -2.605850e+00
        53         2       -8.386983e-01
        54         2        1.506274e+00
        55         2        1.045204e+00
        56         2        9.644531e-01
        57         2       -3.875042e-01
        58         2       -5.997222e-01
        59         2       -5.108877e-01
        60         2       -6.388215e-01
        61         2       -1.171921e+00
        62         2       -9.515581e-01
        63         2       -6.776326e-01
        64         2       -1.415618e+00
        65         2       -9.920153e-01
        66         2        5.230699e-02
        67         2        7.007772e-02
        68         2        2.009404e+00
        69         2       -1.067775e+00
        70         2       -1.544628e+00
        71         2       -1.355445e-01
        72         2        7.784619e-01
        73         2       -1.815458e+00
        74         2        6.144674e-02
        75         2       -1.842079e+00
        76         2        2.837328e+00
        77         2       -1.932976e+00
        78         2        5.784222e-01
        79         2        3.840072e-01
        80         2       -5.357823e-01
        81         2        1.131948e+00
        82         2       -4.336954e-01
        83         2        1.908751e-01
        84         2        1.138229e+00
        85         2       -1.141518e+00
        86         2       -1.239055e+00
        87         2       -5.746640e-01
        88         2       -1.758268e+00
        89         2        1.525356e+00
        90         2        1.142113e-01
        91         2       -2.222332e-02
        92         2       -1.293869e+00
        93         2       -1.559889e-01
        94         2        3.324998e-02
        95         2       -2.169455e+00
        96         2       -2.070569e+00
        97         2       -8.909001e-01
        98         2       -2.671548e-02
        99         2        6.812967e-03
       100         2       -4.788117e-01
         1         3        1.159228e-02
         2         3       -1.727682e-01
         3         3        1.143568e+00
         4         3        1.195304e-01
         5         3        5.468025e-01
         6         3       -1.332588e+00
         7         3       -4.456779e-01
         8         3       -1.020944e+00
         9         3       -2.402081e-01
        10         3        9.831824e-01
        11         3        3.721498e-01
        12         3       -6.700914e-01
        13         3        5.546542e-01
        14         3        1.297823e+00
        15         3        7.037230e-01
        16         3        3.266587e-02
        17         3       -3.106973e-02
        18         3       -3.218339e-01
        19         3        4.077238e-01
        20         3       -4.954748e-01
        21         3        6.719927e-01
        22         3        8.076441e-01
        23         3       -9.070730e-01
        24         3        1.306207e+00
        25         3       -4.476836e-01
        26         3       -1.074089e+00
        27         3        1.314070e+00
        28         3       -6.233065e-01
        29         3       -1.000530e+00
        30         3       -1.357622e+00
        31         3       -1.284326e+00
        32         3        1.373203e+00
        33         3        1.242059e+00
        34         3        1.083527e+00
        35         3       -5.991148e-01
        36         3        3.590125e-01
        37         3        2.728768e-01
        38         3       -3.821756e-01
        39         3        1.172533e+00
        40         3       -6.161805e-01
        41         3        1.144588e+00
        42         3        5.500578e-01
        43         3        1.686400e-01
        44         3       -1.091685e-02
        45         3       -1.471290e+00
        46         3       -2.469699e+00
        47         3        1.419183e+00
        48         3       -1.580709e+00
        49         3        1.609169e+00
        50         3       -3.165690e+00
        51         3        7.432716e-01
        52         3        8.947517e-01
        53         3        9.298390e-01
        54         3        2.155216e-01
        55         3       -9.540814e-01
        56         3       -4.756291e-01
        57         3       -1.652411e+00
        58         3       -1.041865e+00
        59         3       -1.098876e-01
        60         3        9.302716e-01
        61         3       -8.077155e-01
        62         3        1.560635e+00
        63         3       -3.517477e-01
        64         3       -1.442811e+00
        65         3       -6.884231e-01
        66         3       -1.130446e+00
        67         3        5.308321e-01
        68         3        7.401108e-03
        69         3       -8.884252e-02
        70         3       -2.244860e-01
        71         3        7.903074e-01
        72         3       -5.593186e-01
        73         3       -7.400625e-01
        74         3        1.400654e+00
        75         3       -2.068535e-01
        76         3       -4.340521e-01
        77         3        6.675716e-01
        78         3        8.829404e-01
        79         3        1.226761e-01
        80         3       -7.154497e-01
        81         3       -2.023062e-01
        82         3       -7.200699e-01
        83         3        1.270140e-01
        84         3       -1.260050e+00
        85         3        4.593003e-03
        86         3       -2.806745e+00
        87         3       -7.042008e-01
        88         3       -4.090715e-01
        89         3       -1.453041e+00
        90         3       -1.026062e+00
        91         3        2.539331e+00
        92         3       -8.279204e-01
        93         3       -1.306057e+00
        94         3        9.926132e-01
        95         3        6.570668e-01
        96         3       -4.762807e-01
        97         3        3.953380e-02
        98         3        2.229572e+00
        99         3        5.360241e-01
       100         3        6.939229e-01
         1         4        1.420599e-01
         2         4       -5.905221e-01
         3         4        1.105150e+00
         4         4       -5.176587e-01
         5         4        1.423386e-01
         6         4       -6.030182e-01
         7         4       -9.764303e-02
         8         4       -1.003176e+00
         9         4        6.061769e-01
        10         4        6.863300e-01
        11         4       -5.076717e-01
        12         4       -2.435126e+00
        13         4       -9.981931e-02
        14         4        2.649106e+00
        15         4        1.363271e+00
        16         4        1.369783e+00
        17         4       -1.728745e-02
        18         4       -8.809142e-01
        19         4        2.140401e-01
        20         4        1.074902e+00
        21         4       -2.732817e-01
        22         4       -2.348419e-01
        23         4        1.310950e+00
        24         4       -4.481354e-01
        25         4        3.985767e-01
        26         4        8.413690e-01
        27         4       -2.275626e+00
        28         4        6.438578e-01
        29         4       -9.134687e-01
        30         4        1.573623e+00
        31         4        4.652668e-01
        32         4        1.001695e-01
        33         4       -4.682597e-01
        34         4        1.905009e+00
        35         4       -8.866246e-01
        36         4        8.624963e-01
        37         4        1.431358e+00
        38         4       -3.835322e-01
        39         4       -7.688585e-01
        40         4       -1.502286e+00
        41         4       -1.537297e+00
        42         4       -1.478090e+00
        43         4        4.937907e-01
        44         4       -3.635502e-01
        45         4        8.993814e-01
        46         4       -1.481132e+00
        47         4        1.178743e+00
        48         4       -3.037278e-01
        49         4       -4.472798e-01
        50         4        1.156349e+00
        51         4       -5.482946e-01
        52         4       -6.670677e-01
        53         4       -1.175219e-01
        54         4        2.932448e-01
        55         4        1.962080e-02
        56         4        1.114281e+00
        57         4       -5.266943e-01
        58         4        2.284731e-02
        59         4        5.525073e-01
        60         4        5.381214e-01
        61         4        8.559963e-01
        62         4       -6.674131e-01
        63         4       -1.300656e+00
        64         4       -4.303991e-01
        65         4       -9.408894e-01
        66         4        6.981945e-02
        67         4       -7.203284e-02
        68         4       -9.270837e-01
        69         4       -2.562891e-01
        70         4        5.005774e-01
        71         4        7.393632e-01
        72         4        5.724050e-01
        73         4        2.443763e-01
        74         4        2.456891e-01
        75         4        9.308815e-01
        76         4        1.771283e+00
        77         4       -7.931696e-01
        78         4       -2.204672e+00
        79         4       -1.815577e+00
        80         4        3.682283e-01
        81         4        1.053036e-01
        82         4        2.866977e-01
        83         4        1.336525e+00
        84         4        5.094693e-01
        85         4        8.671808e-02
        86         4       -2.215688e-01
        87         4        4.702293e-01
        88         4       -7.961607e-01
        89         4        2.607115e-01
        90         4        1.616294e+00
        91         4        2.052691e+00
        92         4       -2.177706e-01
        93         4        4.152047e-01
        94         4       -6.618457e-01
        95         4        7.770684e-01
        96         4        1.242682e-01
        97         4        1.323965e+00
        98         4       -5.388604e-01
        99         4        1.605055e+00
       100         4       -1.387558e+00
         1         5        1.717620e+00
         2         5       -2.176257e-01
         3         5       -1.345404e+00
         4         5       -1.747453e+00
         5         5       -1.301526e+00
         6         5        1.554458e+00
         7         5        4.911182e-01
         8         5        2.125754e-01
         9         5       -1.200021e+00
        10         5       -4.658037e-01
        11         5        1.091324e+00
        12         5        2.163319e+00
        13         5       -5.108978e-01
        14         5        1.701088e+00
        15         5        4.470348e-01
        16         5        1.016033e+00
        17         5       -2.990858e-01
        18         5       -1.235405e+00
        19         5       -8.233380e-01
        20         5        8.446805e-01
        21         5        1.442106e-01
        22         5       -9.151485e-01
        23         5       -3.161577e-01
        24         5       -1.567248e-01
        25         5       -4.995548e-01
        26         5        1.037860e+00
        27         5       -3.676070e-01
        28         5       -4.780414e-01
        29         5        1.423082e+00
        30         5        6.403751e-01
        31         5        5.282392e-01
        32         5       -7.802080e-01
        33         5        6.648826e-01
        34         5        3.118783e-01
        35         5        9.537826e-01
        36         5        7.525260e-01
        37         5        1.926526e+00
        38         5       -4.686672e-01
        39         5        7.824689e-01
        40         5       -9.788368e-02
        41         5        6.046118e-01
        42         5        2.216508e-01
        43         5        9.224628e-01
        44         5       -2.683773e+00
        45         5        7.211542e-01
        46         5        6.814888e-01
        47         5       -8.170867e-01
        48         5        1.067329e+00
        49         5       -7.640963e-02
        50         5       -1.429927e-01
        51         5        3.994798e-01
        52         5       -3.444490e-01
        53         5       -2.854853e+00
        54         5       -1.450855e+00
        55         5        4.686676e-01
        56         5        2.298988e-01
        57         5        1.331639e-01
        58         5        5.887370e-01
        59         5        2.544389e-01
        60         5        1.417535e+00
        61         5       -8.480575e-03
        62         5       -9.627443e-01
        63         5        1.566633e-01
        64         5       -3.380039e-01
        65         5        1.501404e+00
        66         5        3.164562e-01
        67         5        3.197369e-01
        68         5        5.150360e-01
        69         5        7.190467e-01
        70         5        9.030057e-01
        71         5       -3.871064e-01
        72         5       -3.991732e-01
        73         5       -6.332114e-01
        74         5        8.305093e-01
        75         5       -5.147674e-01
        76         5        2.028542e+00
        77         5        4.621485e-01
        78         5       -1.873955e-01
        79         5       -5.723777e-01
        80         5        1.203558e+00
        81         5        5.691656e-01
        82         5       -2.393526e-01
        83         5        1.439586e+00
        84         5        5.756006e-01
        85         5       -3.035950e-02
        86         5       -1.294395e+00
        87         5       -4.237931e-01
        88         5        3.891644e-01
        89         5       -3.637975e-01
        90         5       -1.368984e+00
        91         5        3.353608e-01
        92         5        1.134488e+00
        93         5       -1.091304e-01
        94         5        2.642386e-02
        95         5       -4.222126e-01
        96         5       -1.720955e+00
        97         5       -5.225202e-01
        98         5        1.687489e-01
        99         5       -7.552638e-01
       100         5        1.308836e+00
;

param theta:=
    1       -9.024755e-01
    2       -7.079386e-01
    3        2.541868e-01
    4        1.354779e+00
    5       -5.219885e-01
;
param X_true:=
    1       -8.722896e-01
    2       -1.688031e+00
    3        3.231697e+00
    4        7.935294e-01
    5        1.719689e+00
    6       -2.731273e+00
    7        7.954463e-01
    8       -2.800353e+00
    9        1.673836e+00
   10        1.218010e+00
   11       -1.819979e+00
   12       -3.638088e+00
   13        4.190673e+00
   14        2.657277e+00
   15        2.194344e+00
   16        2.561112e-01
   17        5.678489e-01
   18        1.421009e-01
   19       -8.188874e-01
   20       -2.339018e-01
   21       -1.314002e+00
   22        7.980532e-01
   23        8.110114e-01
   24       -7.975563e-02
   25       -1.482404e+00
   26       -6.566256e-01
   27       -4.274840e+00
   28       -1.294798e-01
   29       -2.093490e+00
   30        7.969287e-01
   31        9.642239e-01
   32       -8.056990e-01
   33       -5.003745e-01
   34        3.995956e+00
   35       -2.521795e+00
   36        1.254264e+00
   37        1.122873e+00
   38       -6.006046e-01
   39       -3.481545e-01
   40       -1.468438e+00
   41       -2.940838e+00
   42       -3.460763e+00
   43        1.233156e+00
   44       -7.785780e-01
   45        8.966503e-02
   46       -2.849755e+00
   47        2.615626e+00
   48       -1.913113e+00
   49       -5.395133e-02
   50       -9.589583e-01
   51        2.186378e-02
   52        3.572973e+00
   53        2.454795e+00
   54        6.967165e-01
   55       -1.518512e+00
   56       -3.360900e-01
   57        6.946835e-01
   58       -9.596862e-02
   59        2.474865e+00
   60       -1.162448e-01
   61        7.098978e-01
   62       -1.007827e-01
   63       -4.222444e+00
   64        2.030423e-01
   65       -2.311010e+00
   66       -4.161497e-01
   67       -1.321061e-02
   68       -2.133736e+00
   69        1.122330e+00
   70        2.367770e+00
   71        2.698724e+00
   72        1.798747e-01
   73        1.637897e+00
   74       -1.311860e+00
   75        2.379145e+00
   76        1.122190e-02
   77       -9.567103e-02
   78       -2.445906e+00
   79       -2.862354e+00
   80        6.629381e-01
   81       -2.041007e+00
   82       -1.809884e-01
   83       -1.145925e+00
   84        4.737607e-01
   85        9.414372e-01
   86        2.630413e-01
   87        6.278012e-01
   88       -6.674937e-01
   89       -1.396276e+00
   90        2.738181e+00
   91        2.514826e+00
   92       -8.650763e-01
   93        5.756995e-01
   94        5.534372e-01
   95        3.232471e+00
   96        3.103423e+00
   97        1.533776e+00
   98        4.906837e-01
   99        2.214894e+00
  100       -4.865253e-01
;
param X:=
    1        2.391349e-01
    2       -1.688031e+00
    3        3.231697e+00
    4        7.935294e-01
    5        1.719689e+00
    6       -2.731273e+00
    7        7.954463e-01
    8       -4.549057e-01
    9        1.178831e+00
   10        1.218010e+00
   11       -1.819979e+00
   12       -3.638088e+00
   13        4.190673e+00
   14        2.657277e+00
   15       -7.853068e-01
   16        2.561112e-01
   17        5.678489e-01
   18        1.421009e-01
   19       -8.188874e-01
   20       -2.339018e-01
   21       -1.314002e+00
   22        7.980532e-01
   23        8.110114e-01
   24       -7.975563e-02
   25       -1.482404e+00
   26       -6.566256e-01
   27       -4.274840e+00
   28       -1.294798e-01
   29       -2.093490e+00
   30        7.969287e-01
   31        9.642239e-01
   32       -8.056990e-01
   33       -5.003745e-01
   34        3.995956e+00
   35       -2.521795e+00
   36        1.254264e+00
   37        1.122873e+00
   38       -6.006046e-01
   39       -3.481545e-01
   40        5.633775e-01
   41       -2.940838e+00
   42       -3.460763e+00
   43        1.233156e+00
   44       -7.785780e-01
   45        8.966503e-02
   46       -2.849755e+00
   47        2.615626e+00
   48        6.329290e-01
   49       -5.395133e-02
   50       -9.589583e-01
   51        2.186378e-02
   52        3.572973e+00
   53        2.454795e+00
   54        6.967165e-01
   55       -1.518512e+00
   56       -3.360900e-01
   57        6.946835e-01
   58       -9.596862e-02
   59        2.474865e+00
   60       -1.162448e-01
   61        7.098978e-01
   62       -1.007827e-01
   63       -4.222444e+00
   64        2.030423e-01
   65       -2.311010e+00
   66       -4.161497e-01
   67       -1.321061e-02
   68       -2.133736e+00
   69        1.122330e+00
   70        2.367770e+00
   71        2.698724e+00
   72        1.798747e-01
   73        1.637897e+00
   74       -1.311860e+00
   75        2.379145e+00
   76        1.122190e-02
   77       -9.567103e-02
   78       -2.445906e+00
   79       -2.862354e+00
   80        6.629381e-01
   81        8.122976e-01
   82       -6.174320e-01
   83       -1.145925e+00
   84        4.737607e-01
   85        9.414372e-01
   86        2.630413e-01
   87        6.278012e-01
   88       -6.674937e-01
   89       -1.396276e+00
   90        2.738181e+00
   91       -1.253306e+00
   92       -8.650763e-01
   93        5.756995e-01
   94        5.534372e-01
   95        3.232471e+00
   96        3.103423e+00
   97        1.533776e+00
   98        4.906837e-01
   99        6.143197e-01
  100       -4.865253e-01
;
param outliervec:=
    1    1
    2    0
    3    0
    4    0
    5    0
    6    0
    7    0
    8    1
    9    1
   10    0
   11    0
   12    0
   13    0
   14    0
   15    1
   16    0
   17    0
   18    0
   19    0
   20    0
   21    0
   22    0
   23    0
   24    0
   25    0
   26    0
   27    0
   28    0
   29    0
   30    0
   31    0
   32    0
   33    0
   34    0
   35    0
   36    0
   37    0
   38    0
   39    0
   40    1
   41    0
   42    0
   43    0
   44    0
   45    0
   46    0
   47    0
   48    1
   49    0
   50    0
   51    0
   52    0
   53    0
   54    0
   55    0
   56    0
   57    0
   58    0
   59    0
   60    0
   61    0
   62    0
   63    0
   64    0
   65    0
   66    0
   67    0
   68    0
   69    0
   70    0
   71    0
   72    0
   73    0
   74    0
   75    0
   76    0
   77    0
   78    0
   79    0
   80    0
   81    1
   82    1
   83    0
   84    0
   85    0
   86    0
   87    0
   88    0
   89    0
   90    0
   91    1
   92    0
   93    0
   94    0
   95    0
   96    0
   97    0
   98    0
   99    1
  100    0
;